# State Machine uploaded at 09/10/2023 07:06:23

# Schedule Valtime        Phisin         Phisout                 Intflag                            Stsflag                  Phisout                  Stsflag             Actcode Actval Actpar
         0       0  ................ ................ 1............................... ................................ ............0... 10000000..0........0000000000000      8      1  
         0       0  ................ ................ ..................1............. ................................ ................ ................................      9   1001  
         0       0  ................ ................ 0....1.......................... ..0................0............ ................ ..1................1............      0      0  
         0      10  ................ ................ 0............................... ...................1............ ................ ...................0............      0      0  
        10       0  ...............1 ................ 0.....0......................... ..0............................. ................ ..1.............................      0      0  
        60       0  ...............0 ................ 0.....0......................... ..0............................. ................ ..1.............................      0      0  
       300       0  ................ ................ 0.....1......................... ..0............................. ................ ..1.............................      0      0  
         0       0  ................ ................ 0.................1............. ..1............................. ................ ..0.............................     16      8  
         0       0  ................ ................ 0.................0............. ..1............................. ................ ..0.............................     14      0  
         0       0  ...0............ ................ 1............................... ................................ ................ 0...............................      0      0  
       600       0  ................ ................ ................................ ................................ ................ ................................     14      0  
         0     150  ................ ................ 0............................... ................................ ................ ..............................1.      0      0  
       900       0  ................ ................ 0............................... ................................ ................ ..............................1.     14      0  
         0       0  ................ ................ ..................1............. ..............................1. ................ ..............................0.      9    100  
         0    1800  ...............0 ................ 0............................... ................................ ................ .............................1.1      0      0  
         0     300  ................ ................ 0............................... 1............................... ................ .............................1.1      0      0  
         0      46  ................ ................ ..................1............. ...............................1 ................ ................................      9  30001  
         0       1  ...............1 ................ 0............................... ...............0................ ................ 0..1...........1...............0     14      0  
         0       1  ...............0 ................ ................................ ...............1................ ................ ...1...........0...............0     14      0  
         0       1  ............1... ................ 0............................... ............0................... ............1... 0...........1..................0     22    521  
         0       1  ............0... ................ ................................ ............1................... ............0... ............0..................0     22    520  
         0       1  ..............1. ................ 0............................... ..............0................. ................ 0.............1................0     22    501  
         0       1  ..............0. ................ ................................ ..............1................. ................ ..............0................0     22    500  
         0       1  .............1.. ................ 0............................... ...........0.................... ................ 0..........1...................0     22    511  
         0       1  .............0.. ................ ................................ ...........1.................... ................ ...........0...................0     22    510  
         0       1  ...........1.... ................ 0............................... .........0...................... ................ 0........1.....................0     22    531  
         0       1  ...........0.... ................ ................................ .........1...................... ................ .........0.....................0     22    530  
         0      50  ...............0 ................ ................................ ...............................1 ................ ................................     11   1435  
         0       0  ................ .......0........ ................................ ................................ ................ ........0.......................      0      0  
         0       0  ................ .......1........ 0............................... ........0....................... ................ ........1....................1..     33      9  
         0       0  ................ .......1........ 0............................... ........0....................... ................ ........1....................1..     22    610  
         0       0  ................ ................ .11............................. ................................ .......0........ ........0....................1..     22    611  
         0       0  ................ .......00....... .10............................. ................................ ......1......... .............................1..     22    600  
         0      12  ................ ......1......... ................................ ................................ ......0......... .............................1..     22    601  
         0       0  ................ .......00....... ..1............................. ..........0..................... ................ ..........1..................1..     22    599  
         0      30  ................ ................ 0............................... ..........1..................... ................ ..........0.....................      0      0  
         0      30  ................ ........0....... 0...................1........... ............................0... ................ 0...........................11..     22    200  
         0      30  ................ ........0....... ...............................1 ...........................0.... ................ ...........................1.1..     22    201  
         0     600  ................ ................ ............................111. ................................ ................ .............................1..     22    203  
         0      30  ................ ........0....... ...00........................... ..........................0..... ................ ..........................1..1..     22    330  
         0       0  ................ ........0....... .........0001111................ ................................ ................ .............................1..     22    320  
         0       0  ................ ........0....... .........1110011................ ................................ ................ ................................     22    280  
         0       0  ................ ........0....... .........1110100................ ................................ ................ ................................     22    281  
         0       0  ................ .....0.......... 0.....0......................... ................................ .....1.......... ................................      0      0  
         0       0  ................ .....1.......... 0.....1......................... ................................ .....0.......... ................................      0      0  
         0       0  ................ ................ 0..............................0 ................................ ....1........... ................................      0      0  
         0       0  ................ ....1........... 0..............................1 ................................ ...00........... ................................      0      0  
         0       0  ................ ...01........... 0............................1.. ................................ ...1............ ................................      0      0  
         0       0  ................ ...1............ 0............................0.. ................................ ...0............ ................................      0      0  
         0     600  ................ ................ 0...........................111. ................................ ...00........... ................................      0      0  
         0       0  ................ ................ 0......................1........ ................................ ..1............. ................................      0      0  
         0       0  ................ ................ 0......................0........ ................................ ..0............. ................................      0      0  
         0       0  ................ ................ 0..................1............ ................................ .1.............. .............................1..      0      0  
         0       0  ................ ................ 0..................0............ ................................ .0.............. .............................1..      0      0  
         0       0  ................ ................ 0.................1............. ................................ 1............... ...1............................      0      0  
         0       0  ................ ................ 0.................0............. ................................ 0............... ...1.........................1..      0      0  
         0       1  ................ ................ ................................ .1.............................. ................ .0..............................     16      8  
         0       0  ................ ................ 0............................... .............................1.. ................ .............................0..     14      0  
# End